% competition data for problem 0
P = 1..3;
B = 1..1; 
M = 1..4;
MT = 1..5;
R = 1..2;
S = 1..2;
L = 1..3;
numM = 4;
numR = 2;
numP = 3;
processMoveCost = 1;
serviceMoveCost = 10;
machineMoveCost = 100;

TR=[2];
balance=[|2,1,2|];
machine=[1,4,2];
loadCost=[100,10];
balanceCost=[10];
scapacity=[|4,8,|3,7,|11,9,|15,0|];
capacity=[|400,80,|240,160,|100,80,|100,80|];
capacityTransient=[|388,70,|240,60,|100,80,|90,60,|99999,99999|];
requeriment=[|12,10,|10,20,|6,100|];
service=[{1,2},{3}];
depends=[{},{}];
location=[1,1,1,3];
neighbourhood=[1,2,1,3];
spreadMin=[1,1];
PMC=[1000,100,1];
MMC=[|0,1,4,5,|
      1,0,3,4,|
      4,3,0,2,|
      5,4,2,0|]